
Gurobi 6.5.2 (win64) logging started 07/23/16 03:33:13


Gurobi 6.5.2 (win64) logging started 07/23/16 03:33:13

Optimize a model with 22737 rows, 1421 columns and 49481 nonzeros
Coefficient statistics:
  Matrix range    [4e-06, 1e+02]
  Objective range [1e+00, 1e+00]
  Bounds range    [1e+00, 1e+00]
  RHS range       [1e+00, 8e+02]
Presolve removed 21876 rows and 183 columns
Presolve time: 0.05s
Presolved: 861 rows, 1238 columns, 5843 nonzeros
Variable types: 241 continuous, 997 integer (997 binary)

Root relaxation: objective 1.974497e+02, 3280 iterations, 0.12 seconds

    Nodes    |    Current Node    |     Objective Bounds      |     Work
 Expl Unexpl |  Obj  Depth IntInf | Incumbent    BestBd   Gap | It/Node Time

     0     0  197.44967    0  160          -  197.44967      -     -    0s
H    0     0                    1132.1277635  197.44967  82.6%     -    0s
     0     0  201.08661    0  192 1132.12776  201.08661  82.2%     -    0s
     0     0  201.95681    0  195 1132.12776  201.95681  82.2%     -    0s
H    0     0                     217.2714546  201.95681  7.05%     -    0s
H    0     0                     217.2501288  201.95681  7.04%     -    0s
     0     0  208.03191    0  180  217.25013  208.03191  4.24%     -    0s
H    0     0                     217.0024292  208.03191  4.13%     -    0s
     0     0  208.08583    0  182  217.00243  208.08583  4.11%     -    0s
H    0     0                     216.9894146  208.08583  4.10%     -    0s
     0     0  208.35852    0  186  216.98941  208.35852  3.98%     -    0s
     0     0  208.36128    0  187  216.98941  208.36128  3.98%     -    0s
     0     0  208.37650    0  185  216.98941  208.37650  3.97%     -    0s
     0     0  208.37702    0  184  216.98941  208.37702  3.97%     -    0s
     0     0  208.37702    0  186  216.98941  208.37702  3.97%     -    0s
     0     0  208.37702    0  185  216.98941  208.37702  3.97%     -    0s
H    0     0                     216.8280944  208.37702  3.90%     -    0s
H    0     0                     216.8088431  208.37702  3.89%     -    0s
     0     0  208.37702    0  169  216.80884  208.37702  3.89%     -    0s
     0     0  208.37702    0  165  216.80884  208.37702  3.89%     -    0s
     0     0  208.37702    0  171  216.80884  208.37702  3.89%     -    0s
H    0     0                     216.8027906  208.37702  3.89%     -    0s
     0     0  208.37702    0  168  216.80279  208.37702  3.89%     -    0s
H    0     0                     216.6721609  208.37702  3.83%     -    0s
     0     0  208.37702    0  168  216.67216  208.37702  3.83%     -    0s
H    0     0                     216.4699365  208.37702  3.74%     -    0s
H    0     0                     216.2199651  208.37702  3.63%     -    0s
H    0     0                     216.1394817  208.37702  3.59%     -    0s
     0     2  208.37702    0  168  216.13948  208.37702  3.59%     -    0s
H   27    18                     216.0507129  208.37702  3.55%  33.7    0s
H   63    52                     216.0343012  208.37702  3.54%  23.7    0s
H  165   150                     216.0224577  208.37702  3.54%  14.2    0s
H  224   179                     216.0224534  208.37702  3.54%  14.1    0s
H  240   185                     215.9717501  208.37702  3.52%  13.5    0s
H  325   248                     215.9505201  208.37702  3.51%  11.4    0s
H  501   361                     215.9386058  208.37702  3.50%  10.2    1s
H  605   434                     215.9378830  208.87157  3.27%  10.6    1s
H 1038   703                     215.8777315  214.61455  0.59%  11.0    1s
H 1040   670                     215.8253656  214.61455  0.56%  11.0    1s
H 1138   662                     215.8070354  215.50565  0.14%  19.8    2s
* 1588   544              48     215.8063576  215.73450  0.03%  17.2    3s

Cutting planes:
  Gomory: 43
  MIR: 28
  Flow cover: 4

Explored 3521 nodes (53142 simplex iterations) in 4.72 seconds
Thread count was 8 (of 8 available processors)

Optimal solution found (tolerance 1.00e-04)
Best objective 2.158063575712e+02, best bound 2.157862525976e+02, gap 0.0093%

Wrote requested result file 'H2\instance26\\Results26E_Sol6.lp'

